Route #1: 75 4 30 29 45 27 52 8 46 34
Route #2: 5 37 36 69 71 60 70 20 15 57 13 54 19 53 35 7
Route #3: 14 59 11 66 65 38 31 55 25
Route #4: 50 18 24 49 23 56 41 43 42 64 22 1 63
Route #5: 33 73 62 28 61 21 47 48 74 2 68
Route #6: 6 51 16 3 44 32 9 39 72 10 58 12
Route #7: 17 40 26 67
Cost 750